50
    1   214   204
    2   956   946
    3   458   448
    4   829   819
    5   664   654
    6   430   420
    7   873   863
    8   810   800
    9   938   928
   10   416   406
   11   304   294
   12   951   941
   13   811   801
   14    80    70
   15   618   608
   16   570   560
   17   779   769
   18   805   795
   19    80    70
   20   593   583
   21    18     8
   22   605   595
   23   193   183
   24   705   695
   25   706   696
   26   473   463
   27   626   616
   28   752   742
   29   571   561
   30   181   171
   31   811   801
   32   362   352
   33   491   481
   34   868   858
   35   406   396
   36   192   182
   37  1007   997
   38   897   887
   39   468   458
   40   616   606
   41   747   737
   42   480   470
   43   854   844
   44   965   955
   45   666   656
   46   562   552
   47   341   331
   48   774   764
   49   475   465
   50   503   493
9664
